NAME 
OBJSENSE MAX
ROWS
 N  OBJ
 L  packing[0]
 L  packing[1]
 L  packing[2]
 L  packing[3]
 L  packing[4]
 L  packing[5]
 L  packing[6]
 L  packing[7]
 L  packing[8]
 L  packing[9]
 L  packing[10]
 L  packing[11]
 L  packing[12]
 L  packing[13]
 L  packing[14]
 L  packing[15]
 L  packing[16]
 L  packing[17]
 L  packing[18]
 L  packing[19]
 L  packing[20]
 L  packing[21]
 L  packing[22]
 L  packing[23]
 L  packing[24]
 L  packing[25]
 L  packing[26]
 L  packing[27]
 L  packing[28]
 L  packing[29]
 L  packing[30]
 L  packing[31]
 L  packing[32]
 L  packing[33]
 L  packing[34]
 L  packing[35]
 L  packing[36]
 L  packing[37]
 L  packing[38]
 L  packing[39]
 L  packing[40]
 L  packing[41]
 L  packing[42]
 L  packing[43]
 L  packing[44]
 L  packing[45]
 L  packing[46]
 L  packing[47]
 L  packing[48]
 L  packing[49]
 L  R55     
COLUMNS
    MARKER    'MARKER'                 'INTORG'
    x[1]      OBJ       53
    x[1]      packing[1]  186
    x[1]      packing[3]  39
    x[1]      packing[4]  37
    x[1]      packing[5]  18
    x[1]      packing[6]  152
    x[1]      packing[7]  66
    x[1]      packing[9]  32
    x[1]      packing[10]  193
    x[1]      packing[12]  176
    x[1]      packing[13]  37
    x[1]      packing[16]  169
    x[1]      packing[17]  121
    x[1]      packing[18]  69
    x[1]      packing[20]  107
    x[1]      packing[21]  163
    x[1]      packing[22]  77
    x[1]      packing[25]  138
    x[1]      packing[26]  191
    x[1]      packing[27]  195
    x[1]      packing[28]  172
    x[1]      packing[30]  86
    x[1]      packing[32]  60
    x[1]      packing[33]  115
    x[1]      packing[35]  120
    x[1]      packing[36]  196
    x[1]      packing[40]  153
    x[1]      packing[41]  18
    x[1]      packing[42]  51
    x[1]      packing[45]  177
    x[1]      packing[47]  110
    x[1]      packing[49]  107
    x[2]      OBJ       40
    x[2]      packing[1]  25
    x[2]      packing[3]  125
    x[2]      packing[4]  101
    x[2]      packing[5]  106
    x[2]      packing[6]  27
    x[2]      packing[8]  161
    x[2]      packing[9]  196
    x[2]      packing[10]  196
    x[2]      packing[11]  176
    x[2]      packing[12]  83
    x[2]      packing[14]  105
    x[2]      packing[15]  12
    x[2]      packing[16]  68
    x[2]      packing[17]  112
    x[2]      packing[18]  144
    x[2]      packing[19]  82
    x[2]      packing[20]  84
    x[2]      packing[21]  168
    x[2]      packing[23]  75
    x[2]      packing[24]  114
    x[2]      packing[26]  71
    x[2]      packing[27]  182
    x[2]      packing[29]  6
    x[2]      packing[30]  155
    x[2]      packing[31]  37
    x[2]      packing[32]  101
    x[2]      packing[33]  170
    x[2]      packing[34]  132
    x[2]      packing[35]  181
    x[2]      packing[36]  109
    x[2]      packing[37]  170
    x[2]      packing[38]  18
    x[2]      packing[39]  196
    x[2]      packing[41]  57
    x[2]      packing[42]  141
    x[2]      packing[43]  10
    x[2]      packing[45]  71
    x[2]      packing[46]  194
    x[2]      packing[47]  140
    x[2]      packing[48]  90
    x[2]      packing[49]  84
    x[3]      OBJ       8
    x[3]      packing[2]  173
    x[3]      packing[3]  95
    x[3]      packing[4]  195
    x[3]      packing[5]  78
    x[3]      packing[6]  196
    x[3]      packing[7]  128
    x[3]      packing[8]  175
    x[3]      packing[9]  26
    x[3]      packing[10]  162
    x[3]      packing[11]  23
    x[3]      packing[13]  188
    x[3]      packing[15]  162
    x[3]      packing[17]  61
    x[3]      packing[18]  85
    x[3]      packing[19]  29
    x[3]      packing[20]  29
    x[3]      packing[22]  171
    x[3]      packing[23]  25
    x[3]      packing[24]  96
    x[3]      packing[25]  4
    x[3]      packing[26]  126
    x[3]      packing[27]  101
    x[3]      packing[28]  45
    x[3]      packing[29]  104
    x[3]      packing[30]  129
    x[3]      packing[32]  192
    x[3]      packing[33]  184
    x[3]      packing[34]  142
    x[3]      packing[35]  152
    x[3]      packing[36]  10
    x[3]      packing[37]  63
    x[3]      packing[38]  36
    x[3]      packing[39]  20
    x[3]      packing[40]  85
    x[3]      packing[41]  183
    x[3]      packing[42]  95
    x[3]      packing[43]  171
    x[3]      packing[45]  56
    x[3]      packing[47]  60
    x[3]      packing[48]  189
    x[4]      OBJ       154
    x[4]      packing[0]  51
    x[4]      packing[2]  64
    x[4]      packing[3]  60
    x[4]      packing[4]  67
    x[4]      packing[5]  191
    x[4]      packing[6]  134
    x[4]      packing[7]  164
    x[4]      packing[8]  148
    x[4]      packing[9]  8
    x[4]      packing[10]  98
    x[4]      packing[11]  159
    x[4]      packing[12]  40
    x[4]      packing[13]  59
    x[4]      packing[17]  181
    x[4]      packing[18]  16
    x[4]      packing[19]  184
    x[4]      packing[22]  33
    x[4]      packing[23]  71
    x[4]      packing[25]  3
    x[4]      packing[26]  182
    x[4]      packing[27]  149
    x[4]      packing[30]  51
    x[4]      packing[31]  142
    x[4]      packing[32]  9
    x[4]      packing[33]  112
    x[4]      packing[34]  144
    x[4]      packing[35]  139
    x[4]      packing[37]  124
    x[4]      packing[39]  55
    x[4]      packing[40]  81
    x[4]      packing[41]  168
    x[4]      packing[42]  151
    x[4]      packing[43]  29
    x[4]      packing[44]  3
    x[4]      packing[45]  108
    x[4]      packing[46]  87
    x[4]      packing[47]  139
    x[4]      packing[48]  93
    x[4]      packing[49]  192
    x[4]      R55       1
    x[5]      OBJ       58
    x[5]      packing[2]  190
    x[5]      packing[3]  133
    x[5]      packing[4]  193
    x[5]      packing[5]  194
    x[5]      packing[6]  162
    x[5]      packing[8]  89
    x[5]      packing[9]  30
    x[5]      packing[10]  104
    x[5]      packing[11]  126
    x[5]      packing[12]  18
    x[5]      packing[13]  198
    x[5]      packing[14]  13
    x[5]      packing[15]  169
    x[5]      packing[17]  29
    x[5]      packing[20]  42
    x[5]      packing[21]  140
    x[5]      packing[22]  138
    x[5]      packing[23]  67
    x[5]      packing[24]  136
    x[5]      packing[26]  24
    x[5]      packing[28]  148
    x[5]      packing[30]  198
    x[5]      packing[31]  131
    x[5]      packing[32]  91
    x[5]      packing[33]  117
    x[5]      packing[34]  83
    x[5]      packing[35]  164
    x[5]      packing[38]  31
    x[5]      packing[39]  20
    x[5]      packing[40]  179
    x[5]      packing[41]  30
    x[5]      packing[43]  2
    x[5]      packing[44]  149
    x[5]      packing[45]  154
    x[5]      packing[46]  113
    x[5]      packing[47]  194
    x[5]      packing[49]  168
    x[6]      OBJ       24
    x[6]      packing[0]  46
    x[6]      packing[1]  43
    x[6]      packing[2]  45
    x[6]      packing[4]  139
    x[6]      packing[6]  97
    x[6]      packing[7]  119
    x[6]      packing[8]  177
    x[6]      packing[9]  107
    x[6]      packing[10]  145
    x[6]      packing[13]  173
    x[6]      packing[14]  160
    x[6]      packing[15]  7
    x[6]      packing[16]  15
    x[6]      packing[17]  36
    x[6]      packing[18]  9
    x[6]      packing[19]  159
    x[6]      packing[20]  85
    x[6]      packing[21]  177
    x[6]      packing[23]  91
    x[6]      packing[24]  146
    x[6]      packing[25]  165
    x[6]      packing[26]  17
    x[6]      packing[27]  173
    x[6]      packing[28]  35
    x[6]      packing[30]  188
    x[6]      packing[31]  69
    x[6]      packing[32]  42
    x[6]      packing[33]  89
    x[6]      packing[34]  57
    x[6]      packing[36]  78
    x[6]      packing[37]  100
    x[6]      packing[39]  80
    x[6]      packing[40]  145
    x[6]      packing[41]  32
    x[6]      packing[43]  55
    x[6]      packing[44]  70
    x[6]      packing[45]  170
    x[6]      packing[47]  196
    x[6]      packing[48]  44
    x[6]      packing[49]  173
    x[7]      OBJ       167
    x[7]      packing[0]  113
    x[7]      packing[1]  82
    x[7]      packing[2]  145
    x[7]      packing[3]  3
    x[7]      packing[5]  148
    x[7]      packing[7]  197
    x[7]      packing[8]  123
    x[7]      packing[9]  154
    x[7]      packing[10]  92
    x[7]      packing[11]  9
    x[7]      packing[12]  115
    x[7]      packing[14]  157
    x[7]      packing[15]  178
    x[7]      packing[16]  43
    x[7]      packing[17]  176
    x[7]      packing[18]  103
    x[7]      packing[19]  5
    x[7]      packing[20]  157
    x[7]      packing[21]  6
    x[7]      packing[22]  64
    x[7]      packing[23]  119
    x[7]      packing[24]  146
    x[7]      packing[26]  92
    x[7]      packing[27]  15
    x[7]      packing[31]  118
    x[7]      packing[32]  81
    x[7]      packing[33]  160
    x[7]      packing[34]  198
    x[7]      packing[37]  21
    x[7]      packing[38]  22
    x[7]      packing[39]  23
    x[7]      packing[40]  182
    x[7]      packing[41]  166
    x[7]      packing[42]  35
    x[7]      packing[43]  111
    x[7]      packing[44]  162
    x[7]      packing[45]  17
    x[7]      packing[46]  110
    x[7]      packing[47]  166
    x[7]      packing[48]  1
    x[8]      OBJ       17
    x[8]      packing[0]  188
    x[8]      packing[1]  47
    x[8]      packing[3]  8
    x[8]      packing[4]  189
    x[8]      packing[5]  108
    x[8]      packing[6]  117
    x[8]      packing[7]  4
    x[8]      packing[9]  66
    x[8]      packing[10]  114
    x[8]      packing[11]  104
    x[8]      packing[12]  19
    x[8]      packing[13]  120
    x[8]      packing[14]  2
    x[8]      packing[15]  68
    x[8]      packing[16]  97
    x[8]      packing[17]  136
    x[8]      packing[18]  88
    x[8]      packing[19]  21
    x[8]      packing[20]  113
    x[8]      packing[21]  191
    x[8]      packing[22]  143
    x[8]      packing[23]  15
    x[8]      packing[24]  84
    x[8]      packing[27]  78
    x[8]      packing[29]  46
    x[8]      packing[30]  2
    x[8]      packing[31]  143
    x[8]      packing[32]  158
    x[8]      packing[33]  190
    x[8]      packing[35]  146
    x[8]      packing[36]  129
    x[8]      packing[37]  134
    x[8]      packing[38]  193
    x[8]      packing[39]  184
    x[8]      packing[41]  87
    x[8]      packing[42]  94
    x[8]      packing[44]  34
    x[9]      OBJ       65
    x[9]      packing[0]  18
    x[9]      packing[2]  166
    x[9]      packing[3]  49
    x[9]      packing[4]  19
    x[9]      packing[6]  90
    x[9]      packing[9]  47
    x[9]      packing[10]  193
    x[9]      packing[11]  95
    x[9]      packing[12]  138
    x[9]      packing[13]  102
    x[9]      packing[15]  163
    x[9]      packing[16]  30
    x[9]      packing[17]  173
    x[9]      packing[18]  116
    x[9]      packing[19]  128
    x[9]      packing[20]  8
    x[9]      packing[21]  152
    x[9]      packing[22]  142
    x[9]      packing[24]  132
    x[9]      packing[25]  115
    x[9]      packing[26]  178
    x[9]      packing[27]  178
    x[9]      packing[28]  193
    x[9]      packing[32]  149
    x[9]      packing[33]  57
    x[9]      packing[34]  77
    x[9]      packing[35]  144
    x[9]      packing[36]  128
    x[9]      packing[37]  117
    x[9]      packing[38]  197
    x[9]      packing[39]  47
    x[9]      packing[40]  174
    x[9]      packing[41]  83
    x[9]      packing[42]  87
    x[9]      packing[44]  3
    x[9]      packing[45]  193
    x[9]      packing[46]  141
    x[9]      packing[47]  94
    x[9]      packing[48]  176
    x[9]      packing[49]  87
    x[10]     OBJ       153
    x[10]     packing[0]  21
    x[10]     packing[1]  110
    x[10]     packing[2]  42
    x[10]     packing[3]  102
    x[10]     packing[4]  166
    x[10]     packing[5]  150
    x[10]     packing[6]  174
    x[10]     packing[7]  40
    x[10]     packing[8]  97
    x[10]     packing[10]  110
    x[10]     packing[12]  158
    x[10]     packing[13]  124
    x[10]     packing[14]  111
    x[10]     packing[16]  34
    x[10]     packing[17]  149
    x[10]     packing[18]  139
    x[10]     packing[19]  94
    x[10]     packing[20]  160
    x[10]     packing[21]  160
    x[10]     packing[22]  120
    x[10]     packing[26]  1
    x[10]     packing[27]  108
    x[10]     packing[28]  96
    x[10]     packing[30]  116
    x[10]     packing[33]  184
    x[10]     packing[34]  45
    x[10]     packing[35]  33
    x[10]     packing[37]  104
    x[10]     packing[41]  108
    x[10]     packing[42]  106
    x[10]     packing[43]  1
    x[10]     packing[44]  6
    x[10]     packing[46]  170
    x[10]     packing[47]  30
    x[10]     packing[48]  70
    x[10]     packing[49]  89
    x[10]     R55       1
    x[11]     OBJ       39
    x[11]     packing[0]  29
    x[11]     packing[1]  152
    x[11]     packing[2]  57
    x[11]     packing[3]  63
    x[11]     packing[5]  156
    x[11]     packing[6]  42
    x[11]     packing[7]  62
    x[11]     packing[9]  113
    x[11]     packing[10]  188
    x[11]     packing[11]  76
    x[11]     packing[12]  174
    x[11]     packing[13]  63
    x[11]     packing[14]  194
    x[11]     packing[15]  199
    x[11]     packing[16]  81
    x[11]     packing[18]  194
    x[11]     packing[19]  58
    x[11]     packing[21]  104
    x[11]     packing[22]  11
    x[11]     packing[23]  159
    x[11]     packing[24]  180
    x[11]     packing[25]  84
    x[11]     packing[26]  8
    x[11]     packing[27]  112
    x[11]     packing[29]  192
    x[11]     packing[31]  126
    x[11]     packing[32]  140
    x[11]     packing[33]  75
    x[11]     packing[34]  193
    x[11]     packing[35]  172
    x[11]     packing[36]  190
    x[11]     packing[37]  111
    x[11]     packing[39]  67
    x[11]     packing[41]  96
    x[11]     packing[42]  155
    x[11]     packing[43]  164
    x[11]     packing[44]  74
    x[11]     packing[47]  6
    x[11]     packing[48]  44
    x[11]     packing[49]  178
    x[12]     OBJ       60
    x[12]     packing[0]  192
    x[12]     packing[1]  122
    x[12]     packing[3]  9
    x[12]     packing[4]  94
    x[12]     packing[5]  177
    x[12]     packing[6]  69
    x[12]     packing[7]  174
    x[12]     packing[8]  155
    x[12]     packing[9]  34
    x[12]     packing[10]  106
    x[12]     packing[12]  103
    x[12]     packing[13]  12
    x[12]     packing[14]  107
    x[12]     packing[15]  48
    x[12]     packing[16]  76
    x[12]     packing[17]  85
    x[12]     packing[19]  50
    x[12]     packing[21]  144
    x[12]     packing[23]  169
    x[12]     packing[25]  135
    x[12]     packing[26]  151
    x[12]     packing[29]  73
    x[12]     packing[30]  75
    x[12]     packing[32]  146
    x[12]     packing[33]  130
    x[12]     packing[34]  160
    x[12]     packing[36]  84
    x[12]     packing[37]  30
    x[12]     packing[40]  26
    x[12]     packing[41]  177
    x[12]     packing[42]  116
    x[12]     packing[44]  113
    x[12]     packing[45]  114
    x[12]     packing[46]  21
    x[12]     packing[47]  8
    x[12]     packing[49]  96
    x[13]     OBJ       166
    x[13]     packing[0]  164
    x[13]     packing[1]  45
    x[13]     packing[2]  188
    x[13]     packing[3]  115
    x[13]     packing[4]  167
    x[13]     packing[5]  5
    x[13]     packing[6]  193
    x[13]     packing[7]  194
    x[13]     packing[8]  37
    x[13]     packing[9]  163
    x[13]     packing[11]  133
    x[13]     packing[12]  194
    x[13]     packing[13]  84
    x[13]     packing[17]  169
    x[13]     packing[18]  197
    x[13]     packing[19]  53
    x[13]     packing[20]  14
    x[13]     packing[22]  65
    x[13]     packing[23]  80
    x[13]     packing[24]  177
    x[13]     packing[25]  125
    x[13]     packing[26]  66
    x[13]     packing[27]  183
    x[13]     packing[28]  9
    x[13]     packing[29]  70
    x[13]     packing[30]  19
    x[13]     packing[31]  121
    x[13]     packing[32]  71
    x[13]     packing[34]  151
    x[13]     packing[35]  65
    x[13]     packing[36]  131
    x[13]     packing[38]  94
    x[13]     packing[39]  126
    x[13]     packing[40]  35
    x[13]     packing[41]  102
    x[13]     packing[44]  89
    x[13]     packing[46]  156
    x[13]     packing[47]  150
    x[13]     packing[49]  77
    x[14]     OBJ       106
    x[14]     packing[1]  38
    x[14]     packing[2]  84
    x[14]     packing[4]  172
    x[14]     packing[5]  72
    x[14]     packing[6]  121
    x[14]     packing[7]  101
    x[14]     packing[8]  62
    x[14]     packing[9]  195
    x[14]     packing[10]  136
    x[14]     packing[11]  51
    x[14]     packing[12]  22
    x[14]     packing[13]  125
    x[14]     packing[14]  175
    x[14]     packing[16]  134
    x[14]     packing[17]  38
    x[14]     packing[18]  121
    x[14]     packing[19]  88
    x[14]     packing[21]  154
    x[14]     packing[22]  160
    x[14]     packing[23]  187
    x[14]     packing[24]  197
    x[14]     packing[25]  182
    x[14]     packing[26]  195
    x[14]     packing[27]  141
    x[14]     packing[28]  47
    x[14]     packing[30]  71
    x[14]     packing[31]  86
    x[14]     packing[32]  94
    x[14]     packing[33]  107
    x[14]     packing[35]  11
    x[14]     packing[37]  117
    x[14]     packing[38]  85
    x[14]     packing[39]  93
    x[14]     packing[41]  182
    x[14]     packing[42]  192
    x[14]     packing[43]  98
    x[14]     packing[44]  61
    x[14]     packing[46]  143
    x[15]     OBJ       185
    x[15]     packing[0]  142
    x[15]     packing[1]  103
    x[15]     packing[2]  77
    x[15]     packing[3]  81
    x[15]     packing[4]  18
    x[15]     packing[6]  4
    x[15]     packing[7]  186
    x[15]     packing[8]  77
    x[15]     packing[9]  152
    x[15]     packing[11]  175
    x[15]     packing[13]  150
    x[15]     packing[15]  155
    x[15]     packing[17]  199
    x[15]     packing[19]  166
    x[15]     packing[20]  39
    x[15]     packing[21]  11
    x[15]     packing[22]  87
    x[15]     packing[23]  187
    x[15]     packing[26]  20
    x[15]     packing[27]  110
    x[15]     packing[29]  47
    x[15]     packing[30]  122
    x[15]     packing[31]  30
    x[15]     packing[32]  127
    x[15]     packing[34]  50
    x[15]     packing[36]  185
    x[15]     packing[37]  117
    x[15]     packing[38]  8
    x[15]     packing[39]  6
    x[15]     packing[42]  31
    x[15]     packing[43]  55
    x[15]     packing[44]  133
    x[15]     packing[46]  116
    x[15]     packing[47]  57
    x[15]     packing[48]  193
    x[16]     OBJ       68
    x[16]     packing[0]  4
    x[16]     packing[2]  178
    x[16]     packing[3]  6
    x[16]     packing[4]  64
    x[16]     packing[11]  83
    x[16]     packing[12]  29
    x[16]     packing[13]  100
    x[16]     packing[15]  5
    x[16]     packing[16]  83
    x[16]     packing[17]  75
    x[16]     packing[18]  119
    x[16]     packing[19]  181
    x[16]     packing[20]  155
    x[16]     packing[21]  1
    x[16]     packing[23]  42
    x[16]     packing[25]  148
    x[16]     packing[26]  74
    x[16]     packing[29]  155
    x[16]     packing[31]  168
    x[16]     packing[32]  15
    x[16]     packing[33]  59
    x[16]     packing[34]  52
    x[16]     packing[35]  194
    x[16]     packing[36]  133
    x[16]     packing[37]  190
    x[16]     packing[38]  117
    x[16]     packing[40]  188
    x[16]     packing[41]  142
    x[16]     packing[42]  129
    x[16]     packing[43]  162
    x[16]     packing[44]  196
    x[16]     packing[45]  134
    x[16]     packing[47]  159
    x[16]     packing[48]  88
    x[16]     packing[49]  15
    x[16]     R55       1
    x[17]     OBJ       198
    x[17]     packing[0]  162
    x[17]     packing[1]  153
    x[17]     packing[3]  28
    x[17]     packing[4]  167
    x[17]     packing[5]  123
    x[17]     packing[6]  126
    x[17]     packing[7]  26
    x[17]     packing[8]  171
    x[17]     packing[10]  186
    x[17]     packing[11]  136
    x[17]     packing[12]  52
    x[17]     packing[13]  74
    x[17]     packing[14]  172
    x[17]     packing[15]  183
    x[17]     packing[17]  60
    x[17]     packing[18]  111
    x[17]     packing[19]  145
    x[17]     packing[20]  27
    x[17]     packing[22]  99
    x[17]     packing[26]  117
    x[17]     packing[27]  58
    x[17]     packing[28]  133
    x[17]     packing[29]  143
    x[17]     packing[31]  158
    x[17]     packing[32]  54
    x[17]     packing[33]  46
    x[17]     packing[34]  55
    x[17]     packing[35]  119
    x[17]     packing[36]  194
    x[17]     packing[37]  98
    x[17]     packing[38]  58
    x[17]     packing[39]  114
    x[17]     packing[40]  82
    x[17]     packing[43]  129
    x[17]     packing[47]  100
    x[17]     packing[48]  47
    x[17]     R55       1
    x[18]     OBJ       196
    x[18]     packing[0]  165
    x[18]     packing[1]  45
    x[18]     packing[4]  53
    x[18]     packing[5]  114
    x[18]     packing[7]  150
    x[18]     packing[8]  57
    x[18]     packing[9]  35
    x[18]     packing[10]  162
    x[18]     packing[11]  48
    x[18]     packing[12]  126
    x[18]     packing[14]  44
    x[18]     packing[15]  64
    x[18]     packing[19]  142
    x[18]     packing[20]  126
    x[18]     packing[21]  92
    x[18]     packing[22]  27
    x[18]     packing[23]  87
    x[18]     packing[24]  74
    x[18]     packing[25]  92
    x[18]     packing[26]  100
    x[18]     packing[27]  128
    x[18]     packing[28]  93
    x[18]     packing[29]  99
    x[18]     packing[30]  54
    x[18]     packing[31]  87
    x[18]     packing[32]  17
    x[18]     packing[34]  37
    x[18]     packing[35]  138
    x[18]     packing[36]  196
    x[18]     packing[37]  143
    x[18]     packing[38]  183
    x[18]     packing[39]  6
    x[18]     packing[40]  186
    x[18]     packing[41]  166
    x[18]     packing[42]  40
    x[18]     packing[43]  129
    x[18]     packing[44]  111
    x[18]     packing[45]  139
    x[18]     packing[47]  51
    x[18]     packing[48]  123
    x[18]     R55       1
    x[19]     OBJ       151
    x[19]     packing[0]  140
    x[19]     packing[1]  104
    x[19]     packing[2]  1
    x[19]     packing[5]  159
    x[19]     packing[6]  148
    x[19]     packing[7]  75
    x[19]     packing[8]  142
    x[19]     packing[9]  110
    x[19]     packing[11]  90
    x[19]     packing[12]  16
    x[19]     packing[13]  87
    x[19]     packing[14]  95
    x[19]     packing[15]  124
    x[19]     packing[16]  78
    x[19]     packing[17]  136
    x[19]     packing[18]  152
    x[19]     packing[19]  97
    x[19]     packing[20]  42
    x[19]     packing[22]  64
    x[19]     packing[23]  109
    x[19]     packing[25]  199
    x[19]     packing[26]  151
    x[19]     packing[27]  32
    x[19]     packing[28]  50
    x[19]     packing[30]  91
    x[19]     packing[31]  17
    x[19]     packing[32]  182
    x[19]     packing[36]  110
    x[19]     packing[37]  122
    x[19]     packing[40]  147
    x[19]     packing[41]  79
    x[19]     packing[42]  143
    x[19]     packing[43]  198
    x[19]     packing[44]  184
    x[19]     packing[45]  12
    x[19]     packing[47]  30
    x[19]     packing[48]  84
    x[19]     packing[49]  112
    x[19]     R55       1
    x[20]     OBJ       47
    x[20]     packing[0]  93
    x[20]     packing[1]  38
    x[20]     packing[2]  182
    x[20]     packing[3]  61
    x[20]     packing[4]  69
    x[20]     packing[5]  137
    x[20]     packing[9]  142
    x[20]     packing[10]  11
    x[20]     packing[11]  135
    x[20]     packing[12]  42
    x[20]     packing[13]  17
    x[20]     packing[15]  165
    x[20]     packing[16]  43
    x[20]     packing[17]  85
    x[20]     packing[22]  16
    x[20]     packing[23]  116
    x[20]     packing[25]  189
    x[20]     packing[27]  177
    x[20]     packing[28]  157
    x[20]     packing[29]  150
    x[20]     packing[30]  173
    x[20]     packing[31]  26
    x[20]     packing[32]  121
    x[20]     packing[34]  30
    x[20]     packing[36]  142
    x[20]     packing[37]  120
    x[20]     packing[38]  104
    x[20]     packing[40]  82
    x[20]     packing[42]  146
    x[20]     packing[43]  30
    x[20]     packing[44]  71
    x[20]     packing[47]  153
    x[20]     packing[48]  100
    MARKER    'MARKER'                 'INTEND'
RHS
    RHS1      packing[0]  764
    RHS1      packing[1]  647
    RHS1      packing[2]  796
    RHS1      packing[3]  489
    RHS1      packing[4]  955
    RHS1      packing[5]  968
    RHS1      packing[6]  926
    RHS1      packing[7]  843
    RHS1      packing[8]  836
    RHS1      packing[9]  805
    RHS1      packing[10]  1098
    RHS1      packing[11]  810
    RHS1      packing[12]  753
    RHS1      packing[13]  857
    RHS1      packing[14]  668
    RHS1      packing[15]  851
    RHS1      packing[16]  476
    RHS1      packing[17]  1011
    RHS1      packing[18]  832
    RHS1      packing[19]  841
    RHS1      packing[20]  594
    RHS1      packing[21]  832
    RHS1      packing[22]  709
    RHS1      packing[23]  800
    RHS1      packing[24]  741
    RHS1      packing[25]  790
    RHS1      packing[26]  882
    RHS1      packing[27]  1060
    RHS1      packing[28]  589
    RHS1      packing[29]  543
    RHS1      packing[30]  765
    RHS1      packing[31]  730
    RHS1      packing[32]  925
    RHS1      packing[33]  898
    RHS1      packing[34]  803
    RHS1      packing[35]  889
    RHS1      packing[36]  1008
    RHS1      packing[37]  941
    RHS1      packing[38]  573
    RHS1      packing[39]  519
    RHS1      packing[40]  873
    RHS1      packing[41]  938
    RHS1      packing[42]  856
    RHS1      packing[43]  672
    RHS1      packing[44]  730
    RHS1      packing[45]  673
    RHS1      packing[46]  626
    RHS1      packing[47]  922
    RHS1      packing[48]  671
    RHS1      packing[49]  689
    RHS1      R55       5
BOUNDS
 BV BND1      x[1]    
 BV BND1      x[2]    
 BV BND1      x[3]    
 BV BND1      x[4]    
 BV BND1      x[5]    
 BV BND1      x[6]    
 BV BND1      x[7]    
 BV BND1      x[8]    
 BV BND1      x[9]    
 BV BND1      x[10]   
 BV BND1      x[11]   
 BV BND1      x[12]   
 BV BND1      x[13]   
 BV BND1      x[14]   
 BV BND1      x[15]   
 BV BND1      x[16]   
 BV BND1      x[17]   
 BV BND1      x[18]   
 BV BND1      x[19]   
 BV BND1      x[20]   
ENDATA
